NAME: st70
TYPE: TSP
COMMENT: 70-city problem (Smith/Thompson)
DIMENSION: 10
EDGE_WEIGHT_TYPE : EUC_2D
NODE_COORD_SECTION
0 19	10
1 18 13
2 16 16
3 13 18
4 10 19
5 7 18
6 4 16
7 2 13
8 1 10
9 2 7
10 4 4
11 7 2
12 10 1
13 13 2
14 16 4
EOF